c User generated cnf file
p cnf 10 58
2 7 -5 0 
10 7 -4 0 
-4 1 7 0 
-2 9 9 0 
5 5 -9 0 
-8 9 9 0 
6 -1 6 0 
8 7 -6 0 
3 6 -8 0 
5 9 -2 0 
-3 5 2 0 
5 5 -2 0 
-3 6 8 0 
9 9 -3 0 
-2 5 4 0 
-9 9 2 0 
-10 2 6 0 
10 9 -2 0 
10 -1 2 0 
-4 8 5 0 
2 -1 1 0 
-8 6 10 0 
8 1 -4 0 
7 -9 3 0 
5 10 -3 0 
7 -5 7 0 
7 2 -9 0 
7 9 -1 0 
9 2 -2 0 
8 6 -7 0 
-7 5 3 0 
-4 2 8 0 
4 -1 5 0 
10 3 -5 0 
7 -6 6 0 
10 -5 10 0 
4 -7 10 0 
2 2 -10 0 
9 -6 5 0 
5 -8 1 0 
4 -3 5 0 
7 -5 8 0 
-6 8 3 0 
6 2 -4 0 
-1 4 5 0 
6 10 -5 0 
-3 5 7 0 
4 2 -1 0 
4 -8 10 0 
3 -3 2 0 
-4 8 6 0 
8 9 -2 0 
2 -7 8 0 
6 -1 5 0 
8 -3 1 0 
5 -9 9 0 
-4 1 6 0 
3 -4 2 0 
